NAME : ClusterId_1 
COMMENT : (Gillet and Johnson) 
TYPE : CVRP 
DIMENSION : 17 
EDGE_WEIGHT_TYPE : EUC_2D 
CAPACITY : 500 
NODE_COORD_SECTION 
1 -33 33 
70 -18 34 
178 -16 36 
191 -16 16 
250 -14 44 
63 -12 42 
238 -13 38 
123 -1 49 
9 -12 10 
164 -28 39 
225 -26 43 
158 -17 49 
44 -7 52 
224 -5 54 
83 -20 51 
124 -4 17 
119 -3 17 
DEMAND_SECTION 
1 1000
70 39
178 36
191 75
250 50
63 37
238 28
123 4
9 36
164 97
225 99
158 79
44 43
224 39
83 99
124 23
119 18
DEPOT_SECTION 
1
 -1
EOF